100
32
17
21
9
20
5
1
9
25
8
17
8
18
14
8
12
1
3
13
2
11
1
1
11
3
17
17
1
1
2
3
1
5
5
17
3
1
1
1
18
16
3
1
3
1
3
2
1
1
2
3
3
2
17
1
6
1
1
1
2
1
1
2
17
19
1
1
2
3
1
1
2
1
1
4
1
3
3
6
2
1
4
18
8
1
1
1
5
3
1
1
1
5
2
5
1
4
2
1
1
1